Li16 Ti20 Al4 P36 O144                  
1.0
       10.0060596466         0.0000000000         0.0000000000
        0.0000000000        10.4978370667         0.0000000000
        0.0000000000         0.0000000000        10.0448913574
   Li   
   1   
Cartesian
     4.083920410        21.043519395         5.715148935


