Li 
 1.0000000000000000
    20.5191518777365189    0.0000000000000000    0.0000000000000000
     0.0000000000000000   20.5191518777365189    0.0000000000000000
     0.0000000000000000    0.0000000000000000   30.8397172925788396
 Li 
 180
Selective dynamics
Cartesian
  0.0000000000000000  0.0000000000000000  2.0000000000000000   F   F   F
  3.4198586462894198  0.0000000000000000  2.0000000000000000   F   F   F
  6.8397172925788396  0.0000000000000000  2.0000000000000000   F   F   F
 10.2595759388682595  0.0000000000000000  2.0000000000000000   F   F   F
 13.6794345851576793  0.0000000000000000  2.0000000000000000   F   F   F
 17.0992932314470991  0.0000000000000000  2.0000000000000000   F   F   F
  0.0000000000000000  3.4198586462894198  2.0000000000000000   F   F   F
  3.4198586462894198  3.4198586462894198  2.0000000000000000   F   F   F
  6.8397172925788396  3.4198586462894198  2.0000000000000000   F   F   F
 10.2595759388682595  3.4198586462894198  2.0000000000000000   F   F   F
 13.6794345851576793  3.4198586462894198  2.0000000000000000   F   F   F
 17.0992932314470991  3.4198586462894198  2.0000000000000000   F   F   F
  0.0000000000000000  6.8397172925788396  2.0000000000000000   F   F   F
  3.4198586462894198  6.8397172925788396  2.0000000000000000   F   F   F
  6.8397172925788396  6.8397172925788396  2.0000000000000000   F   F   F
 10.2595759388682595  6.8397172925788396  2.0000000000000000   F   F   F
 13.6794345851576793  6.8397172925788396  2.0000000000000000   F   F   F
 17.0992932314470991  6.8397172925788396  2.0000000000000000   F   F   F
  0.0000000000000000 10.2595759388682595  2.0000000000000000   F   F   F
  3.4198586462894198 10.2595759388682595  2.0000000000000000   F   F   F
  6.8397172925788396 10.2595759388682595  2.0000000000000000   F   F   F
 10.2595759388682595 10.2595759388682595  2.0000000000000000   F   F   F
 13.6794345851576793 10.2595759388682595  2.0000000000000000   F   F   F
 17.0992932314470991 10.2595759388682595  2.0000000000000000   F   F   F
  0.0000000000000000 13.6794345851576793  2.0000000000000000   F   F   F
  3.4198586462894198 13.6794345851576793  2.0000000000000000   F   F   F
  6.8397172925788396 13.6794345851576793  2.0000000000000000   F   F   F
 10.2595759388682595 13.6794345851576793  2.0000000000000000   F   F   F
 13.6794345851576793 13.6794345851576793  2.0000000000000000   F   F   F
 17.0992932314470991 13.6794345851576793  2.0000000000000000   F   F   F
  0.0000000000000000 17.0992932314470991  2.0000000000000000   F   F   F
  3.4198586462894198 17.0992932314470991  2.0000000000000000   F   F   F
  6.8397172925788396 17.0992932314470991  2.0000000000000000   F   F   F
 10.2595759388682595 17.0992932314470991  2.0000000000000000   F   F   F
 13.6794345851576793 17.0992932314470991  2.0000000000000000   F   F   F
 17.0992932314470991 17.0992932314470991  2.0000000000000000   F   F   F
  1.7099293231447099  1.7099293231447099  3.7099293231447099   F   F   F
  5.1297879694341297  1.7099293231447099  3.7099293231447099   F   F   F
  8.5496466157235496  1.7099293231447099  3.7099293231447099   F   F   F
 11.9695052620129694  1.7099293231447099  3.7099293231447099   F   F   F
 15.3893639083023892  1.7099293231447099  3.7099293231447099   F   F   F
 18.8092225545918090  1.7099293231447099  3.7099293231447099   F   F   F
  1.7099293231447099  5.1297879694341297  3.7099293231447099   F   F   F
  5.1297879694341297  5.1297879694341297  3.7099293231447099   F   F   F
  8.5496466157235496  5.1297879694341297  3.7099293231447099   F   F   F
 11.9695052620129694  5.1297879694341297  3.7099293231447099   F   F   F
 15.3893639083023892  5.1297879694341297  3.7099293231447099   F   F   F
 18.8092225545918090  5.1297879694341297  3.7099293231447099   F   F   F
  1.7099293231447099  8.5496466157235496  3.7099293231447099   F   F   F
  5.1297879694341297  8.5496466157235496  3.7099293231447099   F   F   F
  8.5496466157235496  8.5496466157235496  3.7099293231447099   F   F   F
 11.9695052620129694  8.5496466157235496  3.7099293231447099   F   F   F
 15.3893639083023892  8.5496466157235496  3.7099293231447099   F   F   F
 18.8092225545918090  8.5496466157235496  3.7099293231447099   F   F   F
  1.7099293231447099 11.9695052620129694  3.7099293231447099   F   F   F
  5.1297879694341297 11.9695052620129694  3.7099293231447099   F   F   F
  8.5496466157235496 11.9695052620129694  3.7099293231447099   F   F   F
 11.9695052620129694 11.9695052620129694  3.7099293231447099   F   F   F
 15.3893639083023892 11.9695052620129694  3.7099293231447099   F   F   F
 18.8092225545918090 11.9695052620129694  3.7099293231447099   F   F   F
  1.7099293231447099 15.3893639083023892  3.7099293231447099   F   F   F
  5.1297879694341297 15.3893639083023892  3.7099293231447099   F   F   F
  8.5496466157235496 15.3893639083023892  3.7099293231447099   F   F   F
 11.9695052620129694 15.3893639083023892  3.7099293231447099   F   F   F
 15.3893639083023892 15.3893639083023892  3.7099293231447099   F   F   F
 18.8092225545918090 15.3893639083023892  3.7099293231447099   F   F   F
  1.7099293231447099 18.8092225545918090  3.7099293231447099   F   F   F
  5.1297879694341297 18.8092225545918090  3.7099293231447099   F   F   F
  8.5496466157235496 18.8092225545918090  3.7099293231447099   F   F   F
 11.9695052620129694 18.8092225545918090  3.7099293231447099   F   F   F
 15.3893639083023892 18.8092225545918090  3.7099293231447099   F   F   F
 18.8092225545918090 18.8092225545918090  3.7099293231447099   F   F   F
  0.0000000000000000  0.0000000000000000  5.4198586462894198   T   T   T
  3.4198586462894198  0.0000000000000000  5.4198586462894198   T   T   T
  6.8397172925788396  0.0000000000000000  5.4198586462894198   T   T   T
 10.2595759388682595  0.0000000000000000  5.4198586462894198   T   T   T
 13.6794345851576793  0.0000000000000000  5.4198586462894198   T   T   T
 17.0992932314470991  0.0000000000000000  5.4198586462894198   T   T   T
  0.0000000000000000  3.4198586462894198  5.4198586462894198   T   T   T
  3.4198586462894198  3.4198586462894198  5.4198586462894198   T   T   T
  6.8397172925788396  3.4198586462894198  5.4198586462894198   T   T   T
 10.2595759388682595  3.4198586462894198  5.4198586462894198   T   T   T
 13.6794345851576793  3.4198586462894198  5.4198586462894198   T   T   T
 17.0992932314470991  3.4198586462894198  5.4198586462894198   T   T   T
  0.0000000000000000  6.8397172925788396  5.4198586462894198   T   T   T
  3.4198586462894198  6.8397172925788396  5.4198586462894198   T   T   T
  6.8397172925788396  6.8397172925788396  5.4198586462894198   T   T   T
 10.2595759388682595  6.8397172925788396  5.4198586462894198   T   T   T
 13.6794345851576793  6.8397172925788396  5.4198586462894198   T   T   T
 17.0992932314470991  6.8397172925788396  5.4198586462894198   T   T   T
  0.0000000000000000 10.2595759388682595  5.4198586462894198   T   T   T
  3.4198586462894198 10.2595759388682595  5.4198586462894198   T   T   T
  6.8397172925788396 10.2595759388682595  5.4198586462894198   T   T   T
 10.2595759388682595 10.2595759388682595  5.4198586462894198   T   T   T
 13.6794345851576793 10.2595759388682595  5.4198586462894198   T   T   T
 17.0992932314470991 10.2595759388682595  5.4198586462894198   T   T   T
  0.0000000000000000 13.6794345851576793  5.4198586462894198   T   T   T
  3.4198586462894198 13.6794345851576793  5.4198586462894198   T   T   T
  6.8397172925788396 13.6794345851576793  5.4198586462894198   T   T   T
 10.2595759388682595 13.6794345851576793  5.4198586462894198   T   T   T
 13.6794345851576793 13.6794345851576793  5.4198586462894198   T   T   T
 17.0992932314470991 13.6794345851576793  5.4198586462894198   T   T   T
  0.0000000000000000 17.0992932314470991  5.4198586462894198   T   T   T
  3.4198586462894198 17.0992932314470991  5.4198586462894198   T   T   T
  6.8397172925788396 17.0992932314470991  5.4198586462894198   T   T   T
 10.2595759388682595 17.0992932314470991  5.4198586462894198   T   T   T
 13.6794345851576793 17.0992932314470991  5.4198586462894198   T   T   T
 17.0992932314470991 17.0992932314470991  5.4198586462894198   T   T   T
  1.7099293231447099  1.7099293231447099  7.1297879694341297   T   T   T
  5.1297879694341297  1.7099293231447099  7.1297879694341297   T   T   T
  8.5496466157235496  1.7099293231447099  7.1297879694341297   T   T   T
 11.9695052620129694  1.7099293231447099  7.1297879694341297   T   T   T
 15.3893639083023892  1.7099293231447099  7.1297879694341297   T   T   T
 18.8092225545918090  1.7099293231447099  7.1297879694341297   T   T   T
  1.7099293231447099  5.1297879694341297  7.1297879694341297   T   T   T
  5.1297879694341297  5.1297879694341297  7.1297879694341297   T   T   T
  8.5496466157235496  5.1297879694341297  7.1297879694341297   T   T   T
 11.9695052620129694  5.1297879694341297  7.1297879694341297   T   T   T
 15.3893639083023892  5.1297879694341297  7.1297879694341297   T   T   T
 18.8092225545918090  5.1297879694341297  7.1297879694341297   T   T   T
  1.7099293231447099  8.5496466157235496  7.1297879694341297   T   T   T
  5.1297879694341297  8.5496466157235496  7.1297879694341297   T   T   T
  8.5496466157235496  8.5496466157235496  7.1297879694341297   T   T   T
 11.9695052620129694  8.5496466157235496  7.1297879694341297   T   T   T
 15.3893639083023892  8.5496466157235496  7.1297879694341297   T   T   T
 18.8092225545918090  8.5496466157235496  7.1297879694341297   T   T   T
  1.7099293231447099 11.9695052620129694  7.1297879694341297   T   T   T
  5.1297879694341297 11.9695052620129694  7.1297879694341297   T   T   T
  8.5496466157235496 11.9695052620129694  7.1297879694341297   T   T   T
 11.9695052620129694 11.9695052620129694  7.1297879694341297   T   T   T
 15.3893639083023892 11.9695052620129694  7.1297879694341297   T   T   T
 18.8092225545918090 11.9695052620129694  7.1297879694341297   T   T   T
  1.7099293231447099 15.3893639083023892  7.1297879694341297   T   T   T
  5.1297879694341297 15.3893639083023892  7.1297879694341297   T   T   T
  8.5496466157235496 15.3893639083023892  7.1297879694341297   T   T   T
 11.9695052620129694 15.3893639083023892  7.1297879694341297   T   T   T
 15.3893639083023892 15.3893639083023892  7.1297879694341297   T   T   T
 18.8092225545918090 15.3893639083023892  7.1297879694341297   T   T   T
  1.7099293231447099 18.8092225545918090  7.1297879694341297   T   T   T
  5.1297879694341297 18.8092225545918090  7.1297879694341297   T   T   T
  8.5496466157235496 18.8092225545918090  7.1297879694341297   T   T   T
 11.9695052620129694 18.8092225545918090  7.1297879694341297   T   T   T
 15.3893639083023892 18.8092225545918090  7.1297879694341297   T   T   T
 18.8092225545918090 18.8092225545918090  7.1297879694341297   T   T   T
  0.0000000000000000  0.0000000000000000  8.8397172925788396   T   T   T
  3.4198586462894198  0.0000000000000000  8.8397172925788396   T   T   T
  6.8397172925788396  0.0000000000000000  8.8397172925788396   T   T   T
 10.2595759388682595  0.0000000000000000  8.8397172925788396   T   T   T
 13.6794345851576793  0.0000000000000000  8.8397172925788396   T   T   T
 17.0992932314470991  0.0000000000000000  8.8397172925788396   T   T   T
  0.0000000000000000  3.4198586462894198  8.8397172925788396   T   T   T
  3.4198586462894198  3.4198586462894198  8.8397172925788396   T   T   T
  6.8397172925788396  3.4198586462894198  8.8397172925788396   T   T   T
 10.2595759388682595  3.4198586462894198  8.8397172925788396   T   T   T
 13.6794345851576793  3.4198586462894198  8.8397172925788396   T   T   T
 17.0992932314470991  3.4198586462894198  8.8397172925788396   T   T   T
  0.0000000000000000  6.8397172925788396  8.8397172925788396   T   T   T
  3.4198586462894198  6.8397172925788396  8.8397172925788396   T   T   T
  6.8397172925788396  6.8397172925788396  8.8397172925788396   T   T   T
 10.2595759388682595  6.8397172925788396  8.8397172925788396   T   T   T
 13.6794345851576793  6.8397172925788396  8.8397172925788396   T   T   T
 17.0992932314470991  6.8397172925788396  8.8397172925788396   T   T   T
  0.0000000000000000 10.2595759388682595  8.8397172925788396   T   T   T
  3.4198586462894198 10.2595759388682595  8.8397172925788396   T   T   T
  6.8397172925788396 10.2595759388682595  8.8397172925788396   T   T   T
 10.2595759388682595 10.2595759388682595  8.8397172925788396   T   T   T
 13.6794345851576793 10.2595759388682595  8.8397172925788396   T   T   T
 17.0992932314470991 10.2595759388682595  8.8397172925788396   T   T   T
  0.0000000000000000 13.6794345851576793  8.8397172925788396   T   T   T
  3.4198586462894198 13.6794345851576793  8.8397172925788396   T   T   T
  6.8397172925788396 13.6794345851576793  8.8397172925788396   T   T   T
 10.2595759388682595 13.6794345851576793  8.8397172925788396   T   T   T
 13.6794345851576793 13.6794345851576793  8.8397172925788396   T   T   T
 17.0992932314470991 13.6794345851576793  8.8397172925788396   T   T   T
  0.0000000000000000 17.0992932314470991  8.8397172925788396   T   T   T
  3.4198586462894198 17.0992932314470991  8.8397172925788396   T   T   T
  6.8397172925788396 17.0992932314470991  8.8397172925788396   T   T   T
 10.2595759388682595 17.0992932314470991  8.8397172925788396   T   T   T
 13.6794345851576793 17.0992932314470991  8.8397172925788396   T   T   T
 17.0992932314470991 17.0992932314470991  8.8397172925788396   T   T   T
