Li  C  O  C  O  C  H 
 1.0000000000000000
    20.5191518777365189    0.0000000000000000    0.0000000000000000
     0.0000000000000000   20.5191518777365189    0.0000000000000000
     0.0000000000000000    0.0000000000000000   30.8397172925788396
 Li  C   O   C   O   C   H  
 180   1   1   1   2   3  10
Selective dynamics
Cartesian
  0.0000000000000000  0.0000000000000000  2.0000000000000000   F   F   F
  3.4198586462894198  0.0000000000000000  2.0000000000000000   F   F   F
  6.8397172925788396  0.0000000000000000  2.0000000000000000   F   F   F
 10.2595759388682595  0.0000000000000000  2.0000000000000000   F   F   F
 13.6794345851576793  0.0000000000000000  2.0000000000000000   F   F   F
 17.0992932314470991  0.0000000000000000  2.0000000000000000   F   F   F
  0.0000000000000000  3.4198586462894198  2.0000000000000000   F   F   F
  3.4198586462894198  3.4198586462894198  2.0000000000000000   F   F   F
  6.8397172925788396  3.4198586462894198  2.0000000000000000   F   F   F
 10.2595759388682595  3.4198586462894198  2.0000000000000000   F   F   F
 13.6794345851576793  3.4198586462894198  2.0000000000000000   F   F   F
 17.0992932314470991  3.4198586462894198  2.0000000000000000   F   F   F
  0.0000000000000000  6.8397172925788396  2.0000000000000000   F   F   F
  3.4198586462894198  6.8397172925788396  2.0000000000000000   F   F   F
  6.8397172925788396  6.8397172925788396  2.0000000000000000   F   F   F
 10.2595759388682595  6.8397172925788396  2.0000000000000000   F   F   F
 13.6794345851576793  6.8397172925788396  2.0000000000000000   F   F   F
 17.0992932314470991  6.8397172925788396  2.0000000000000000   F   F   F
  0.0000000000000000 10.2595759388682595  2.0000000000000000   F   F   F
  3.4198586462894198 10.2595759388682595  2.0000000000000000   F   F   F
  6.8397172925788396 10.2595759388682595  2.0000000000000000   F   F   F
 10.2595759388682595 10.2595759388682595  2.0000000000000000   F   F   F
 13.6794345851576793 10.2595759388682595  2.0000000000000000   F   F   F
 17.0992932314470991 10.2595759388682595  2.0000000000000000   F   F   F
  0.0000000000000000 13.6794345851576793  2.0000000000000000   F   F   F
  3.4198586462894198 13.6794345851576793  2.0000000000000000   F   F   F
  6.8397172925788396 13.6794345851576793  2.0000000000000000   F   F   F
 10.2595759388682595 13.6794345851576793  2.0000000000000000   F   F   F
 13.6794345851576793 13.6794345851576793  2.0000000000000000   F   F   F
 17.0992932314470991 13.6794345851576793  2.0000000000000000   F   F   F
  0.0000000000000000 17.0992932314470991  2.0000000000000000   F   F   F
  3.4198586462894198 17.0992932314470991  2.0000000000000000   F   F   F
  6.8397172925788396 17.0992932314470991  2.0000000000000000   F   F   F
 10.2595759388682595 17.0992932314470991  2.0000000000000000   F   F   F
 13.6794345851576793 17.0992932314470991  2.0000000000000000   F   F   F
 17.0992932314470991 17.0992932314470991  2.0000000000000000   F   F   F
  1.7099293231447099  1.7099293231447099  3.7099293231447099   F   F   F
  5.1297879694341297  1.7099293231447099  3.7099293231447099   F   F   F
  8.5496466157235496  1.7099293231447099  3.7099293231447099   F   F   F
 11.9695052620129694  1.7099293231447099  3.7099293231447099   F   F   F
 15.3893639083023892  1.7099293231447099  3.7099293231447099   F   F   F
 18.8092225545918090  1.7099293231447099  3.7099293231447099   F   F   F
  1.7099293231447099  5.1297879694341297  3.7099293231447099   F   F   F
  5.1297879694341297  5.1297879694341297  3.7099293231447099   F   F   F
  8.5496466157235496  5.1297879694341297  3.7099293231447099   F   F   F
 11.9695052620129694  5.1297879694341297  3.7099293231447099   F   F   F
 15.3893639083023892  5.1297879694341297  3.7099293231447099   F   F   F
 18.8092225545918090  5.1297879694341297  3.7099293231447099   F   F   F
  1.7099293231447099  8.5496466157235496  3.7099293231447099   F   F   F
  5.1297879694341297  8.5496466157235496  3.7099293231447099   F   F   F
  8.5496466157235496  8.5496466157235496  3.7099293231447099   F   F   F
 11.9695052620129694  8.5496466157235496  3.7099293231447099   F   F   F
 15.3893639083023892  8.5496466157235496  3.7099293231447099   F   F   F
 18.8092225545918090  8.5496466157235496  3.7099293231447099   F   F   F
  1.7099293231447099 11.9695052620129694  3.7099293231447099   F   F   F
  5.1297879694341297 11.9695052620129694  3.7099293231447099   F   F   F
  8.5496466157235496 11.9695052620129694  3.7099293231447099   F   F   F
 11.9695052620129694 11.9695052620129694  3.7099293231447099   F   F   F
 15.3893639083023892 11.9695052620129694  3.7099293231447099   F   F   F
 18.8092225545918090 11.9695052620129694  3.7099293231447099   F   F   F
  1.7099293231447099 15.3893639083023892  3.7099293231447099   F   F   F
  5.1297879694341297 15.3893639083023892  3.7099293231447099   F   F   F
  8.5496466157235496 15.3893639083023892  3.7099293231447099   F   F   F
 11.9695052620129694 15.3893639083023892  3.7099293231447099   F   F   F
 15.3893639083023892 15.3893639083023892  3.7099293231447099   F   F   F
 18.8092225545918090 15.3893639083023892  3.7099293231447099   F   F   F
  1.7099293231447099 18.8092225545918090  3.7099293231447099   F   F   F
  5.1297879694341297 18.8092225545918090  3.7099293231447099   F   F   F
  8.5496466157235496 18.8092225545918090  3.7099293231447099   F   F   F
 11.9695052620129694 18.8092225545918090  3.7099293231447099   F   F   F
 15.3893639083023892 18.8092225545918090  3.7099293231447099   F   F   F
 18.8092225545918090 18.8092225545918090  3.7099293231447099   F   F   F
  0.0000000000000000  0.0000000000000000  5.4198586462894198   T   T   T
  3.4198586462894198  0.0000000000000000  5.4198586462894198   T   T   T
  6.8397172925788396  0.0000000000000000  5.4198586462894198   T   T   T
 10.2595759388682595  0.0000000000000000  5.4198586462894198   T   T   T
 13.6794345851576793  0.0000000000000000  5.4198586462894198   T   T   T
 17.0992932314470991  0.0000000000000000  5.4198586462894198   T   T   T
  0.0000000000000000  3.4198586462894198  5.4198586462894198   T   T   T
  3.4198586462894198  3.4198586462894198  5.4198586462894198   T   T   T
  6.8397172925788396  3.4198586462894198  5.4198586462894198   T   T   T
 10.2595759388682595  3.4198586462894198  5.4198586462894198   T   T   T
 13.6794345851576793  3.4198586462894198  5.4198586462894198   T   T   T
 17.0992932314470991  3.4198586462894198  5.4198586462894198   T   T   T
  0.0000000000000000  6.8397172925788396  5.4198586462894198   T   T   T
  3.4198586462894198  6.8397172925788396  5.4198586462894198   T   T   T
  6.8397172925788396  6.8397172925788396  5.4198586462894198   T   T   T
 10.2595759388682595  6.8397172925788396  5.4198586462894198   T   T   T
 13.6794345851576793  6.8397172925788396  5.4198586462894198   T   T   T
 17.0992932314470991  6.8397172925788396  5.4198586462894198   T   T   T
  0.0000000000000000 10.2595759388682595  5.4198586462894198   T   T   T
  3.4198586462894198 10.2595759388682595  5.4198586462894198   T   T   T
  6.8397172925788396 10.2595759388682595  5.4198586462894198   T   T   T
 10.2595759388682595 10.2595759388682595  5.4198586462894198   T   T   T
 13.6794345851576793 10.2595759388682595  5.4198586462894198   T   T   T
 17.0992932314470991 10.2595759388682595  5.4198586462894198   T   T   T
  0.0000000000000000 13.6794345851576793  5.4198586462894198   T   T   T
  3.4198586462894198 13.6794345851576793  5.4198586462894198   T   T   T
  6.8397172925788396 13.6794345851576793  5.4198586462894198   T   T   T
 10.2595759388682595 13.6794345851576793  5.4198586462894198   T   T   T
 13.6794345851576793 13.6794345851576793  5.4198586462894198   T   T   T
 17.0992932314470991 13.6794345851576793  5.4198586462894198   T   T   T
  0.0000000000000000 17.0992932314470991  5.4198586462894198   T   T   T
  3.4198586462894198 17.0992932314470991  5.4198586462894198   T   T   T
  6.8397172925788396 17.0992932314470991  5.4198586462894198   T   T   T
 10.2595759388682595 17.0992932314470991  5.4198586462894198   T   T   T
 13.6794345851576793 17.0992932314470991  5.4198586462894198   T   T   T
 17.0992932314470991 17.0992932314470991  5.4198586462894198   T   T   T
  1.7099293231447099  1.7099293231447099  7.1297879694341297   T   T   T
  5.1297879694341297  1.7099293231447099  7.1297879694341297   T   T   T
  8.5496466157235496  1.7099293231447099  7.1297879694341297   T   T   T
 11.9695052620129694  1.7099293231447099  7.1297879694341297   T   T   T
 15.3893639083023892  1.7099293231447099  7.1297879694341297   T   T   T
 18.8092225545918090  1.7099293231447099  7.1297879694341297   T   T   T
  1.7099293231447099  5.1297879694341297  7.1297879694341297   T   T   T
  5.1297879694341297  5.1297879694341297  7.1297879694341297   T   T   T
  8.5496466157235496  5.1297879694341297  7.1297879694341297   T   T   T
 11.9695052620129694  5.1297879694341297  7.1297879694341297   T   T   T
 15.3893639083023892  5.1297879694341297  7.1297879694341297   T   T   T
 18.8092225545918090  5.1297879694341297  7.1297879694341297   T   T   T
  1.7099293231447099  8.5496466157235496  7.1297879694341297   T   T   T
  5.1297879694341297  8.5496466157235496  7.1297879694341297   T   T   T
  8.5496466157235496  8.5496466157235496  7.1297879694341297   T   T   T
 11.9695052620129694  8.5496466157235496  7.1297879694341297   T   T   T
 15.3893639083023892  8.5496466157235496  7.1297879694341297   T   T   T
 18.8092225545918090  8.5496466157235496  7.1297879694341297   T   T   T
  1.7099293231447099 11.9695052620129694  7.1297879694341297   T   T   T
  5.1297879694341297 11.9695052620129694  7.1297879694341297   T   T   T
  8.5496466157235496 11.9695052620129694  7.1297879694341297   T   T   T
 11.9695052620129694 11.9695052620129694  7.1297879694341297   T   T   T
 15.3893639083023892 11.9695052620129694  7.1297879694341297   T   T   T
 18.8092225545918090 11.9695052620129694  7.1297879694341297   T   T   T
  1.7099293231447099 15.3893639083023892  7.1297879694341297   T   T   T
  5.1297879694341297 15.3893639083023892  7.1297879694341297   T   T   T
  8.5496466157235496 15.3893639083023892  7.1297879694341297   T   T   T
 11.9695052620129694 15.3893639083023892  7.1297879694341297   T   T   T
 15.3893639083023892 15.3893639083023892  7.1297879694341297   T   T   T
 18.8092225545918090 15.3893639083023892  7.1297879694341297   T   T   T
  1.7099293231447099 18.8092225545918090  7.1297879694341297   T   T   T
  5.1297879694341297 18.8092225545918090  7.1297879694341297   T   T   T
  8.5496466157235496 18.8092225545918090  7.1297879694341297   T   T   T
 11.9695052620129694 18.8092225545918090  7.1297879694341297   T   T   T
 15.3893639083023892 18.8092225545918090  7.1297879694341297   T   T   T
 18.8092225545918090 18.8092225545918090  7.1297879694341297   T   T   T
  0.0000000000000000  0.0000000000000000  8.8397172925788396   T   T   T
  3.4198586462894198  0.0000000000000000  8.8397172925788396   T   T   T
  6.8397172925788396  0.0000000000000000  8.8397172925788396   T   T   T
 10.2595759388682595  0.0000000000000000  8.8397172925788396   T   T   T
 13.6794345851576793  0.0000000000000000  8.8397172925788396   T   T   T
 17.0992932314470991  0.0000000000000000  8.8397172925788396   T   T   T
  0.0000000000000000  3.4198586462894198  8.8397172925788396   T   T   T
  3.4198586462894198  3.4198586462894198  8.8397172925788396   T   T   T
  6.8397172925788396  3.4198586462894198  8.8397172925788396   T   T   T
 10.2595759388682595  3.4198586462894198  8.8397172925788396   T   T   T
 13.6794345851576793  3.4198586462894198  8.8397172925788396   T   T   T
 17.0992932314470991  3.4198586462894198  8.8397172925788396   T   T   T
  0.0000000000000000  6.8397172925788396  8.8397172925788396   T   T   T
  3.4198586462894198  6.8397172925788396  8.8397172925788396   T   T   T
  6.8397172925788396  6.8397172925788396  8.8397172925788396   T   T   T
 10.2595759388682595  6.8397172925788396  8.8397172925788396   T   T   T
 13.6794345851576793  6.8397172925788396  8.8397172925788396   T   T   T
 17.0992932314470991  6.8397172925788396  8.8397172925788396   T   T   T
  0.0000000000000000 10.2595759388682595  8.8397172925788396   T   T   T
  3.4198586462894198 10.2595759388682595  8.8397172925788396   T   T   T
  6.8397172925788396 10.2595759388682595  8.8397172925788396   T   T   T
 10.2595759388682595 10.2595759388682595  8.8397172925788396   T   T   T
 13.6794345851576793 10.2595759388682595  8.8397172925788396   T   T   T
 17.0992932314470991 10.2595759388682595  8.8397172925788396   T   T   T
  0.0000000000000000 13.6794345851576793  8.8397172925788396   T   T   T
  3.4198586462894198 13.6794345851576793  8.8397172925788396   T   T   T
  6.8397172925788396 13.6794345851576793  8.8397172925788396   T   T   T
 10.2595759388682595 13.6794345851576793  8.8397172925788396   T   T   T
 13.6794345851576793 13.6794345851576793  8.8397172925788396   T   T   T
 17.0992932314470991 13.6794345851576793  8.8397172925788396   T   T   T
  0.0000000000000000 17.0992932314470991  8.8397172925788396   T   T   T
  3.4198586462894198 17.0992932314470991  8.8397172925788396   T   T   T
  6.8397172925788396 17.0992932314470991  8.8397172925788396   T   T   T
 10.2595759388682595 17.0992932314470991  8.8397172925788396   T   T   T
 13.6794345851576793 17.0992932314470991  8.8397172925788396   T   T   T
 17.0992932314470991 17.0992932314470991  8.8397172925788396   T   T   T
 13.6794345851576793 13.6794345851576793 10.4198586462894198   T   T   T
 13.6794345851576793 13.6794345851576793 11.8493006843319861   T   T   T
 12.8000924541742549 14.4815982659749611 12.4419949188986241   T   T   T
 12.0185981014030006 15.1978269716274355 11.8704070671616826   T   T   T
 12.9221031540645086 14.3473514534092050 13.7556015037527466   T   T   T
 12.0802970350562333 15.1639416137322520 14.5841412060562057   T   T   T
 12.6986879991787056 16.5372913442671781 14.8354393082022291   T   T   T
 11.8507273799907029 17.3471915251575410 15.8089909549712857   T   T   T
 13.8782688536642400 14.6831921597099733 10.0410524611385696   T   T   T
 12.7137903421544269 13.3403877935370208 10.0414790401638037   T   T   T
 14.4703206385434235 12.9927579601275713 10.1325425680477057   T   T   T
 11.9849920734679571 14.6032137007188911 15.5155023312889142   T   T   T
 11.1009836574040257 15.2690542937597460 14.1066601503226785   T   T   T
 12.7792502620981789 17.0658087384670765 13.8833256604462463   T   T   T
 13.7044590613451867 16.4007424083863960 15.2367569085279264   T   T   T
 10.8498999759253287 17.4930147618399019 15.4103302226894918   T   T   T
 12.3024782229178058 18.3211208225216851 15.9744367571214916   T   T   T
 11.7723499117464687 16.8338268816942218 16.7639048987545678   T   T   T
