Li Ti Al  P  O  C  O  H 
 1.0000000000000000
    17.0060596466000007    0.0000000000000000    0.0000000000000000
     0.0000000000000000   25.4978370667000007    0.0000000000000000
     0.0000000000000000    0.0000000000000000   34.0448913573999974
 Li  Ti  Al  P   O   C   O   H  
  32  40   8  72 289   6   1  11
Cartesian
  4.0839204100000002 21.0435193950000006  5.7151489350000002
 12.5869504869999993 21.0435193950000006  5.7151489350000002
  4.5454072009999997 12.3892793409999999  0.6691257269999999
 13.0484375309999994 12.3892793409999999  0.6691257269999999
  8.1761673679999998 16.5713487559999990  0.7234787700000000
 16.6791971910000001 16.5713487559999990  0.7234787700000000
  0.0830691800000000 25.4292580840000007  5.8691871789999999
  8.5860986470000000 25.4292580840000007  5.8691871789999999
  8.2300058499999995  8.1924489690000009  0.6175543660000000
 16.7330356739999999  8.1924489690000009  0.6175543660000000
  6.9744285560000003 17.3815622279999999  6.3695977499999996
 15.4774578730000005 17.3815622279999999  6.3695977499999996
  2.6987492240000002  6.8166040330000000  5.7425926780000003
 11.2017787940000009  6.8166040330000000  5.7425926780000003
  1.9655541649999999 16.3358254539999983  5.6191325580000004
 10.4685834819999997 16.3358254539999983  5.6191325580000004
  0.3053185800000000 17.2764657429999993 11.6527141929999996
  8.8083483709999992 17.2764657429999993 11.6527141929999996
  8.2511275770000001  8.6093097570000001  6.5470492570000003
 16.7541579069999997  8.6093097570000001  6.5470492570000003
  4.2904057499999997 12.5487462959999991  6.5987228220000000
 12.7934360799999993 12.5487462959999991  6.5987228220000000
  3.9492380439999999 21.4970732220000009 11.8402603539999998
 12.4522681209999995 21.4970732220000009 11.8402603539999998
  4.2709240929999996  4.1340630640000002  6.1364626199999996
 12.7739539160000000  4.1340630640000002  6.1364626199999996
  3.9616399320000002 13.1670202290000002 11.6542584520000005
 12.4646700080000006 13.1670202290000002 11.6542584520000005
  6.9134109669999999  2.2363936469999999 11.7667743970000007
 15.4164407899999993  2.2363936469999999 11.7667743970000007
  0.3530717050000000  9.1057216479999994 11.6743710840000006
  8.8561019719999994  9.1057216479999994 11.6743710840000006
  8.3658579569999993  2.3749285410000001  2.0552547710000000
 16.8688877800000014  2.3749285410000001  2.0552547710000000
  0.0043476040000000  6.1071704640000002  4.4446589300000001
  8.5073773260000003  6.1071704640000002  4.4446589300000001
  4.2431974869999998 10.3448979919999999  4.3700167490000004
 12.7462268040000009 10.3448979919999999  4.3700167490000004
  4.4465392750000001  6.5171424260000004  1.9782028640000000
 12.9495690989999996  6.5171424260000004  1.9782028640000000
  8.3206055130000003 19.2981475160000002  1.9951483320000001
 16.8236348299999996 19.2981475160000002  1.9951483320000001
  0.0270691710000000 23.0405957760000000  4.2843476249999997
  8.5300990829999996 23.0405957760000000  4.2843476249999997
  4.2556748910000000  1.8230657990000001  4.4502275789999999
 12.7587047140000003  1.8230657990000001  4.4502275789999999
  4.4323483130000003 23.5627620200000010  2.0387048619999999
 12.9353781370000007 23.5627620200000010  2.0387048619999999
  8.3657996729999997 10.8855897099999996  2.0094676640000002
 16.8688289890000007 10.8855897099999996  2.0094676640000002
  8.4912178750000002 14.5374068419999993  4.3904866040000003
 16.9942476979999988 14.5374068419999993  4.3904866040000003
  4.2707538019999998 23.6491605340000000  8.1006342230000001
 12.7737836250000001 23.6491605340000000  8.1006342230000001
  4.0420684759999999  1.8571938130000001 10.6842372200000000
 12.5450982989999993  1.8571938130000001 10.6842372200000000
  0.1539159500000000  6.2380083839999996 10.5792670060000003
  8.6569460110000005  6.2380083839999996 10.5792670060000003
  8.4520609560000004  2.4249275259999998  8.1373352810000004
 16.9550907789999989  2.4249275259999998  8.1373352810000004
  4.2382907090000002 15.1164679260000003  7.9625129560000003
 12.7413207859999993 15.1164679260000003  7.9625129560000003
  4.1344331399999996 18.7888782059999997 10.4198987380000005
 12.6374632160000004 18.7888782059999997 10.4198987380000005
  0.1842162510000000 23.1284198530000005 10.5719441360000008
  8.6872457420000000 23.1284198530000005 10.5719441360000008
  8.4955070930000005 19.4921000149999983  7.9984909709999998
 16.9985364089999997 19.4921000149999983  7.9984909709999998
  4.2283545010000001  6.7017026260000003  8.2574628830000005
 12.7313840710000008  6.7017026260000003  8.2574628830000005
  4.0810971690000004 10.4989750130000008 10.4028602919999997
 12.5841274989999992 10.4989750130000008 10.4028602919999997
  4.2894686399999999 18.7303207150000013  4.2371645940000002
 12.7924984629999994 18.7303207150000013  4.2371645940000002
  4.4050398340000001 15.0917911040000003  1.9627430740000000
 12.9080696580000005 15.0917911040000003  1.9627430740000000
  0.1263285060000000 14.6261655889999993 10.2966023589999995
  8.6293587810000005 14.6261655889999993 10.2966023589999995
  8.4888505179999996 10.9580775910000003  8.0570545829999993
 16.9918808480000010 10.9580775910000003  8.0570545829999993
  1.9300857560000000 16.9105338620000012  2.9304939580000000
 10.4331151989999995 16.9105338620000012  2.9304939580000000
  5.4240497369999998 17.9868974339999994  1.2125067439999999
 13.9270790540000000 17.9868974339999994  1.2125067439999999
  5.4783762879999998 15.7379113810000000  4.9347738420000002
 13.9814061110000001 15.7379113810000000  4.9347738420000002
  2.4818208570000002  4.3487242149999998  3.3075524340000002
 10.9848506799999992  4.3487242149999998  3.3075524340000002
  7.2567896750000003  3.0013052320000000  5.1103059540000002
 15.7598194980000006  3.0013052320000000  5.1103059540000002
  7.4385424479999998  5.4277280420000000  1.2571165769999999
 15.9415722720000002  5.4277280420000000  1.2571165769999999
  1.8023067859999999  8.4830251269999994  2.9579335809999998
 10.3053367359999992  8.4830251269999994  2.9579335809999998
  5.4666150210000000  9.6137515699999998  1.2734596579999999
 13.9696448439999994  9.6137515699999998  1.2734596579999999
  5.5019854869999998  7.2363660989999996  5.0936297460000004
 14.0050158170000003  7.2363660989999996  5.0936297460000004
  2.4473854739999998 21.1677317930000015  3.0067482950000000
 10.9504152969999993 21.1677317930000015  3.0067482950000000
  7.1324408640000003 20.0466271370000015  4.9740177330000002
 15.6354701800000004 20.0466271370000015  4.9740177330000002
  7.3479534290000004 22.3547816359999985  1.1605951800000001
 15.8509832520000007 22.3547816359999985  1.1605951800000001
  1.8343846960000001  0.0733594270000000  3.0733223490000001
 10.3374143919999995  0.0733594270000000  3.0733223490000001
  5.3711422830000002  1.2130259900000000  1.2968824160000001
 13.8741721059999996  1.2130259900000000  1.2968824160000001
  5.5525950190000000 24.2438860890000001  5.0777758290000001
 14.0556248420000003 24.2438860890000001  5.0777758290000001
  2.4708223540000001 12.7279864719999996  2.8562561139999998
 10.9738526840000006 12.7279864719999996  2.8562561139999998
  7.2443472419999999 11.4889058750000004  5.1200254709999999
 15.7473770660000003 11.4889058750000004  5.1200254709999999
  7.2160225889999996 13.8838851890000008  1.2885335630000001
 15.7190529189999992 13.8838851890000008  1.2885335630000001
  6.1407445080000000 12.7812809309999995  9.3892780519999999
 14.6437743309999995 12.7812809309999995  9.3892780519999999
  1.2618955670000001 13.9076592570000006  7.4204500240000000
  9.7649256439999998 13.9076592570000006  7.4204500240000000
  1.1500373360000000 11.6915986840000006 11.0708946469999994
  9.6530674130000005 11.6915986840000006 11.0708946469999994
  6.6965700269999999  0.0242209790000000  9.6858209669999997
 15.1995998500000002  0.0242209790000000  9.6858209669999997
  3.0953823040000001 24.2234965930000001 11.2497836410000005
 11.5984121269999996 24.2234965930000001 11.2497836410000005
  3.0204373000000002  1.2543114529999999  7.5307617259999997
 11.5234666160000003  1.2543114529999999  7.5307617259999997
  6.0379482199999996  4.2677760459999998  9.6844056950000006
 14.5409780430000009  4.2677760459999998  9.6844056950000006
  1.2082585450000001  5.5456010170000001  7.5195520530000000
  9.7112888749999993  5.5456010170000001  7.5195520530000000
  1.1354945139999999  3.2027417450000000 11.2465754520000001
  9.6385247179999993  3.2027417450000000 11.2465754520000001
  6.7242424019999998 16.9773985220000014  9.3851433069999999
 15.2272722260000002 16.9773985220000014  9.3851433069999999
  2.9711262409999999 15.8030130849999999 11.0930230580000000
 11.4741560640000007 15.8030130849999999 11.0930230580000000
  3.0017736500000001 18.2635006460000007  7.2877691349999996
 11.5048034739999991 18.2635006460000007  7.2877691349999996
  6.0795399019999996 21.2551029729999996  9.6189527510000001
 14.5825697259999991 21.2551029729999996  9.6189527510000001
  1.2336091780000000 22.5735492579999999  7.4217950699999999
  9.7366390020000004 22.5735492579999999  7.4217950699999999
  1.2228932280000000 20.0176341119999996 11.1499865160000002
  9.7259227979999991 20.0176341119999996 11.1499865160000002
  6.7078265000000004  8.5938694560000002  9.4414396170000003
 15.2108563239999999  8.5938694560000002  9.4414396170000003
  3.0509004800000001  7.5246048200000004 11.3490884659999995
 11.5539305569999993  7.5246048200000004 11.3490884659999995
  2.8740595540000000  9.7078409790000002  7.3633203150000002
 11.3770888699999997  9.7078409790000002  7.3633203150000002
  2.7159529779999998 17.7450046939999986  3.9642628190000000
 11.2189833080000003 17.7450046939999986  3.9642628190000000
  5.0217364709999996 18.4890267729999991  2.6207929509999999
 13.5247662940000009 18.4890267729999991  2.6207929509999999
  5.1999014649999999 17.2456185750000017  5.0882800159999997
 13.7029307809999992 17.2456185750000017  5.0882800159999997
  5.2704320669999998 16.4285690899999999  1.1698050200000001
 13.7734618900000001 16.4285690899999999  1.1698050200000001
  2.8016020220000000 15.9655363369999996  2.1254848850000001
 11.3046318449999994 15.9655363369999996  2.1254848850000001
  4.9508536290000000 15.0898138569999993  3.6679012019999999
 13.4538834519999995 15.0898138569999993  3.6679012019999999
  1.4014103350000000  3.4708679519999999  2.7067046420000000
  9.9044400320000001  3.4708679519999999  2.7067046420000000
  7.6522689799999997  2.3019847229999999  3.7758334560000000
 16.1552993100000002  2.3019847229999999  3.7758334560000000
  7.8492952830000000  3.9571618439999998  1.0503964299999999
 16.3523245989999992  3.9571618439999998  1.0503964299999999
  7.8232310470000002  4.4353263820000004  5.1169756489999996
 16.3262608699999987  4.4353263820000004  5.1169756489999996
  1.8556066460000000  5.4784008640000001  4.1977816849999998
 10.3586359619999993  5.4784008640000001  4.1977816849999998
  7.8464327630000001  5.8060739440000004  2.7605736699999999
 16.3494620789999985  5.8060739440000004  2.7605736699999999
  2.6130223820000000  9.4842738610000001  3.7995799350000001
 11.1160522060000009  9.4842738610000001  3.7995799350000001
  5.1685313300000004  9.9700206290000004  2.7761259009999999
 13.6715606459999997  9.9700206290000004  2.7761259009999999
  5.0005118599999996  8.6707115330000004  5.1577799219999996
 13.5035416829999999  8.6707115330000004  5.1577799219999996
  5.0962141870000002  8.1107055700000004  1.0768398090000000
 13.5992435040000004  8.1107055700000004  1.0768398090000000
  2.7423765489999998  7.4932485230000001  2.2679949300000000
 11.2454068790000008  7.4932485230000001  2.2679949300000000
  5.1254222279999997  6.6391860840000003  3.6847483180000000
 13.6284525579999993  6.6391860840000003  3.6847483180000000
  1.4881733699999999 20.2910366479999986  2.2014799950000001
  9.9912035740000000 20.2910366479999986  2.2014799950000001
  7.8011042960000001 19.3039455129999986  3.7709685020000001
 16.3041341200000005 19.3039455129999986  3.7709685020000001
  7.4858834979999997 20.7857630919999998  1.2658657369999999
 15.9889133210000001 20.7857630919999998  1.2658657369999999
  7.5957499259999999 21.5028742579999985  5.0400722560000002
 16.0987797489999984 21.5028742579999985  5.0400722560000002
  1.6426331230000000 22.1315747079999987  3.9587231919999999
 10.1456630729999997 22.1315747079999987  3.9587231919999999
  7.8394280030000001 22.8609490549999990  2.6139976730000001
 16.3424578260000004 22.8609490549999990  2.6139976730000001
  2.5788578950000001  1.0516313719999999  4.0339250330000000
 11.0818874649999994  1.0516313719999999  4.0339250330000000
  4.9389317009999996  1.7240895070000000  2.7670581250000001
 13.4419610170000006  1.7240895070000000  2.7670581250000001
  5.0413534479999997  0.1964737590000000  5.1050275249999997
 13.5443832719999993  0.1964737590000000  5.1050275249999997
  5.2222856799999997 25.1575835490000017  1.3883372270000001
 13.7253160100000002 25.1575835490000017  1.3883372270000001
  2.7873061479999999 24.6277378089999992  2.3661062679999998
 11.2903354650000001 24.6277378089999992  2.3661062679999998
  5.0036379259999997 23.4959307949999996  3.8210938660000000
 13.5066677490000000 23.4959307949999996  3.8210938660000000
  1.5897692550000000 11.6993146550000002  2.0857567559999999
 10.0927986979999993 11.6993146550000002  2.0857567559999999
  7.7720244809999999 10.9001287760000007  3.7296952179999998
 16.2750548110000004 10.9001287760000007  3.7296952179999998
  7.5987508070000001 12.3413406200000004  1.1363502210000000
 16.1017811379999998 12.3413406200000004  1.1363502210000000
  7.6848048010000003 12.9411825460000003  5.1806170429999998
 16.1878351309999999 12.9411825460000003  5.1806170429999998
  1.5871923280000000 13.5902147400000004  3.7468687420000002
 10.0902220249999992 13.5902147400000004  3.7468687420000002
  7.5963271939999997 14.2612884419999997  2.7628042470000000
 16.0993565099999998 14.2612884419999997  2.7628042470000000
  3.3418833690000000 20.3688437929999999  3.9577371590000001
 11.8449131919999999 20.3688437929999999  3.9577371590000001
  5.6168871720000002 19.9874054990000012  4.8574602000000002
 14.1199169960000006 19.9874054990000012  4.8574602000000002
  8.0685593299999994 23.0000538699999986  0.0569651210000000
 16.5715891530000015 23.0000538699999986  0.0569651210000000
  7.7921898379999996 10.5931077360000003  6.2181456920000002
 16.2952201680000002 10.5931077360000003  6.2181456920000002
  3.3122060129999999 13.4878310799999994  1.8111983960000000
 11.8152358359999994 13.4878310799999994  1.8111983960000000
  5.6645373819999998 13.8679289190000006  1.1933947439999999
 14.1675672049999992 13.8679289190000006  1.1933947439999999
  1.0495536679999999  0.8921875940000000  2.0081722420000001
  9.5525832380000004  0.8921875940000000  2.0081722420000001
  6.9402724310000004  1.4390328450000001  1.3264372440000001
 15.4433022540000007  1.4390328450000001  1.3264372440000001
  5.0542819220000004 23.4263745880000016  6.2899505209999997
 13.5573112380000005 23.4263745880000016  6.2899505209999997
  4.7822087430000000 10.5740055020000003  0.3519039580000000
 13.2852380599999993 10.5740055020000003  0.3519039580000000
  0.8338561770000000  7.8314921190000000  3.9831368199999999
  9.3368856830000002  7.8314921190000000  3.9831368199999999
  7.0360852449999998  7.2176795269999996  5.2454755720000001
 15.5391155750000003  7.2176795269999996  5.2454755720000001
  3.4607086020000000 11.9863755399999992  3.7968661950000002
 11.9637381719999993 11.9863755399999992  3.7968661950000002
  5.6998718640000003 11.4572365010000006  5.1091877090000004
 14.2029016870000007 11.4572365010000006  5.1091877090000004
  7.9435090800000001 14.7583584010000006  0.3198920650000000
 16.4465383960000011 14.7583584010000006  0.3198920650000000
  7.8310563489999998  2.1227378969999999  6.2456392390000000
 16.3340861719999992  2.1227378969999999  6.2456392390000000
  3.3410615600000000  4.9656949299999997  2.1693232149999999
 11.8440911300000007  4.9656949299999997  2.1693232149999999
  5.8695070759999997  5.4970714779999996  1.2672952510000000
 14.3725374059999993  5.4970714779999996  1.2672952510000000
  1.0298905060000001 17.6743496789999988  1.9244800209999999
  9.5329206460000009 17.6743496789999988  1.9244800209999999
  7.0814010410000003 18.0982068180000013  1.2213244280000000
 15.5844313719999992 18.0982068180000013  1.2213244280000000
  4.8810700799999998 14.9217418540000004  6.1185836100000000
 13.3841004100000003 14.9217418540000004  6.1185836100000000
  4.6461964809999996  1.9052324599999999  0.2228479360000000
 13.1492257979999998  1.9052324599999999  0.2228479360000000
  0.8430825190000000 24.8462166710000005  4.0144150549999997
  9.3461128500000008 24.8462166710000005  4.0144150549999997
  7.0814932830000004 24.2954814239999983  5.0381109400000001
 15.5845225989999996 24.2954814239999983  5.0381109400000001
  3.4208393479999999  3.6282710329999999  4.2974921019999996
 11.9238686640000005  3.6282710329999999  4.2974921019999996
  5.7317381760000004  3.0724743160000001  5.2089518710000000
 14.2347674919999996  3.0724743160000001  5.2089518710000000
  8.0575593070000000  6.4099250750000003  0.3166082300000000
 16.5605891310000004  6.4099250750000003  0.3166082300000000
  7.5860199939999999 19.2361674590000007  6.2198490350000002
 16.0890498169999994 19.2361674590000007  6.2198490350000002
  3.2787746400000000 22.0270268670000000  2.0326202659999999
 11.7818049709999997 22.0270268670000000  2.0326202659999999
  5.7926467979999998 22.5679625120000011  1.2374609510000001
 14.2956771279999995 22.5679625120000011  1.2374609510000001
  0.9355122460000000  9.1637365729999996  1.8563796230000000
  9.4385416259999992  9.1637365729999996  1.8563796230000000
  7.0490664279999997  9.6580427960000002  1.1432949090000000
 15.5520962510000000  9.6580427960000002  1.1432949090000000
  4.7946126580000001  6.3266098330000000  6.1310136420000001
 13.2976429879999998  6.3266098330000000  6.1310136420000001
  4.8631164860000000 18.7152656800000017  0.0565996590000000
 13.3661468160000005 18.7152656800000017  0.0565996590000000
  0.9428718440000000 16.1463304980000011  3.8957625610000002
  9.4459016669999993 16.1463304980000011  3.8957625610000002
  7.0340356650000002 15.6670451150000005  5.0929543559999999
 15.5370659950000007 15.6670451150000005  5.0929543559999999
  6.9868142249999998 13.8168852680000001 10.1017304620000008
 15.4898445549999995 13.8168852680000001 10.1017304620000008
  0.7445596120000000 14.6799342230000001  8.6362492460000002
  9.2475890550000006 14.6799342230000001  8.6362492460000002
  0.8100763060000000 13.1934493689999996 11.1536203629999999
  9.3131056860000001 13.1934493689999996 11.1536203629999999
  0.7805483350000000 12.4772462780000009  7.3645478400000002
  9.2835783480000007 12.4772462780000009  7.3645478400000002
  6.9009827250000004 11.7495436990000002  8.5844431120000007
 15.4040125490000008 11.7495436990000002  8.5844431120000007
  0.7954153309999999 11.0664887370000002  9.7075874980000005
  9.2984454079999992 11.0664887370000002  9.7075874980000005
  5.7808176180000004 24.6731430399999994  8.8064172959999993
 14.2838479480000000 24.6731430399999994  8.8064172959999993
  3.3622106550000002 23.8946764519999988  9.7512208820000001
 11.8652407320000002 23.8946764519999988  9.7512208820000001
  3.4277272860000001 25.2917885630000008  7.4077405189999999
 11.9307573619999996 25.2917885630000008  7.4077405189999999
  3.4759818779999998  0.2452102270000000 11.4523746860000006
 11.9790117009999992  0.2452102270000000 11.4523746860000006
  5.9071399869999999  1.0090944580000001 10.5948550669999992
 14.4101698099999993  1.0090944580000001 10.5948550669999992
  3.5377771830000002  1.7852726240000001  8.9571498940000005
 12.0408072589999993  1.7852726240000001  8.9571498940000005
  7.0086824969999997  5.2403417929999998 10.4049233650000001
 15.5117128280000003  5.2403417929999998 10.4049233650000001
  0.7268669030000000  6.2351432009999996  8.8484261629999992
  9.2298969799999995  6.2351432009999996  8.8484261629999992
  1.0741084670000001  4.7777053250000003 11.3119481359999998
  9.5771386700000001  4.7777053250000003 11.3119481359999998
  0.6739374660000000  4.1365703370000002  7.4344035340000003
  9.1769677319999996  4.1365703370000002  7.4344035340000003
  6.8270234859999999  3.3573848879999999  8.7241014719999992
 15.3300533090000002  3.3573848879999999  8.7241014719999992
  0.8384904130000000  2.7958918110000002  9.7701296380000002
  9.3415200459999994  2.7958918110000002  9.7701296380000002
  5.8468653960000001 16.0783381540000008  8.4920355000000001
 14.3498947119999993 16.0783381540000008  8.4920355000000001
  3.4244674190000000 15.4527958269999992  9.6316679880000002
 11.9274974960000009 15.4527958269999992  9.6316679880000002
  3.2508888929999999 16.7466093640000011  7.1480555969999999
 11.7539187169999995 16.7466093640000011  7.1480555969999999
  3.3342227840000001 17.3365354240000009 11.2970465719999993
 11.8372531139999992 17.3365354240000009 11.2970465719999993
  5.8273406600000000 17.9315786149999994 10.2183510539999993
 14.3303699760000001 17.9315786149999994 10.2183510539999993
  3.5664596510000002 18.7384044759999995  8.6960024039999997
 12.0694892209999995 18.7384044759999995  8.6960024039999997
  6.9769099470000002 22.1974180690000011 10.4246920329999995
 15.4799392640000004 22.1974180690000011 10.4246920329999995
  0.7414875850000000 23.1223102989999987  8.8315575499999994
  9.2445177249999997 23.1223102989999987  8.8315575499999994
  0.8876083730000000 21.5253793010000010 11.3722881840000003
  9.3906380069999997 21.5253793010000010 11.3722881840000003
  0.7149295800000000 21.1320729709999995  7.3150613189999998
  9.2179593400000002 21.1320729709999995  7.3150613189999998
  6.8961436070000000 20.2988483660000014  8.7453685369999992
 15.3991734309999995 20.2988483660000014  8.7453685369999992
  0.9016699060000000 19.6558846920000008  9.6586054580000003
  9.4046992229999997 19.6558846920000008  9.6586054580000003
  5.8724800820000000  7.5439327440000001  8.6365416160000006
 14.3755093990000002  7.5439327440000001  8.6365416160000006
  3.3900984290000000  7.1203468870000002  9.8274786239999994
 11.8931279990000007  7.1203468870000002  9.8274786239999994
  3.3088260300000001  8.2235317040000009  7.2581938839999998
 11.8118553459999998  8.2235317040000009  7.2581938839999998
  3.3215652059999998  9.0750986489999992 11.3975610080000003
 11.8245947759999996  9.0750986489999992 11.3975610080000003
  5.7581825269999998  9.5379680249999996 10.1840971640000006
 14.2612123499999992  9.5379680249999996 10.1840971640000006
  3.4764499270000000 10.3009813940000008  8.6972937060000000
 11.9794800030000008 10.3009813940000008  8.6972937060000000
  7.6184007280000001 16.2466882790000007 10.4047478000000009
 16.1214305519999996 16.2466882790000007 10.4047478000000009
  1.4158291130000000 15.7662995289999994 11.1449789599999995
  9.9188590629999993 15.7662995289999994 11.1449789599999995
  3.6653544380000000 19.1055552280000001  6.2178096089999997
 12.1683840080000003 19.1055552280000001  6.2178096089999997
  3.7661634839999998  6.7018348479999998 12.3350610720000002
 12.2691935609999998  6.7018348479999998 12.3350610720000002
  7.6267992439999999  9.2414472110000006  8.4168619650000007
 16.1298285600000000  9.2414472110000006  8.4168619650000007
  1.3593295720000000  9.7584416110000003  7.3986612789999997
  9.8623597749999998  9.7584416110000003  7.3986612789999997
  5.1288625229999996 22.0202121310000010  8.6771868059999999
 13.6318928530000001 22.0202121310000010  8.6771868059999999
  2.7753512759999999 22.5225800770000006  7.4245045100000002
 11.2783805929999996 22.5225800770000006  7.4245045100000002
  0.5460189300000000 19.0610633900000010 12.0818197580000000
  9.0490483729999998 19.0610633900000010 12.0818197580000000
  0.7548123280000000  6.5014612380000001  6.3937390719999998
  9.2578420250000004  6.5014612380000001  6.3937390719999998
  5.3227343769999997  3.4371643390000002 10.7951551610000003
 13.8257636940000008  3.4371643390000002 10.7951551610000003
  2.6421766999999998  2.8451599669999998 11.4922810670000004
 11.1452065230000006  2.8451599669999998 11.4922810670000004
  7.5617544629999998  7.9003051490000002 10.5576380610000005
 16.0647842859999983  7.9003051490000002 10.5576380610000005
  1.4550730780000001  7.4573936490000001 11.3933789670000003
  9.9581031549999999  7.4573936490000001 11.3933789670000003
  3.4765837270000000 10.6038237720000001  6.2623681160000002
 11.9796138039999995 10.6038237720000001  6.2623681160000002
  3.8332231289999998 23.3021150769999998 12.1707561910000006
 12.3362529520000006 23.3021150769999998 12.1707561910000006
  7.6279882440000000  0.8027945240000000  8.7214586749999992
 16.1310185739999987  0.8027945240000000  8.7214586749999992
  1.4853010940000000  1.3423011869999999  7.5283797689999998
  9.9883309180000008  1.3423011869999999  7.5283797689999998
  5.1401174760000004 13.4380108590000003  8.3750272300000006
 13.6431472990000007 13.4380108590000003  8.3750272300000006
  2.8279619870000001 13.8704274529999996  7.4202723080000004
 11.3309915570000008 13.8704274529999996  7.4202723080000004
  0.6212682800000000 10.8479346450000005 12.2003758710000003
  9.1242979769999994 10.8479346450000005 12.2003758710000003
  0.6825108340000000 23.4833059040000016  6.3374047820000001
  9.1855411010000001 23.4833059040000016  6.3374047820000001
  5.1976836200000003 20.4796881209999988 10.6563516969999998
 13.7007129370000005 20.4796881209999988 10.6563516969999998
  2.8050803279999998 19.9895757580000009 11.2711015840000002
 11.3081106580000004 19.9895757580000009 11.2711015840000002
  7.5820485519999998 24.7095085640000001 10.6493297960000000
 16.0850783749999984 24.7095085640000001 10.6493297960000000
  1.5411165550000001 24.1612004200000001 11.4253404750000005
 10.0441459989999995 24.1612004200000001 11.4253404750000005
  3.6492355320000001  2.1756550689999998  6.4979238989999999
 12.1522651019999994  2.1756550689999998  6.4979238989999999
  3.6640166860000001 14.9199880169999997 12.0822927100000008
 12.1670470159999997 14.9199880169999997 12.0822927100000008
  7.6003381680000004 17.7417964179999998  8.3650450809999999
 16.1033684979999983 17.7417964179999998  8.3650450809999999
  1.4732862910000000 18.4362946359999995  7.2835741960000000
  9.9763162409999993 18.4362946359999995  7.2835741960000000
  4.9903627879999997  5.0066931520000004  8.8219050340000003
 13.4933931180000002  5.0066931520000004  8.8219050340000003
  2.7562134970000001  5.5230560789999998  7.4819251560000000
 11.2592430669999999  5.5230560789999998  7.4819251560000000
  0.1568032570000000  2.5805763900000001 12.1941071099999991
  8.6598328579999997  2.5805763900000001 12.1941071099999991
  0.8979297010000000 14.7649998819999997  6.1679776899999998
  9.4009599040000005 14.7649998819999997  6.1679776899999998
  5.2212071670000002 12.1203738619999992 10.4972478519999992
 13.7242374970000007 12.1203738619999992 10.4972478519999992
  2.7783080650000000 11.7029560709999991 11.1291981359999994
 11.2813383950000006 11.7029560709999991 11.1291981359999994
  7.1324408640000003 20.0466271370000015 19.9740177330000002
  7.4966434622787226 19.1062210997235482 20.6712223778934678
  7.4966434622787226 19.1062210997235482 22.1807100941733992
  6.9808177684994366 20.4207214484177406 22.7556794148505652
  6.9881938847891814 20.4043386117024887 24.2828786745313820
  6.4736935401978064 21.7242912828512900 24.8528643289495506
  6.4816607957416856 21.7116463907383306 26.3754309841218451
  5.9971344885142557 22.9505427215466611 26.8729545755365677
  8.5243066113684165 18.9189309054585379 22.5119319703157004
  6.8732119982223212 18.2694424600002492 22.5128720533549327
  5.9617661386148253 20.6064274614105543 22.3930239737389911
  7.6003226303935953 21.2499314601744089 22.3926318964841613
  8.0076925332525679 20.2212632272565820 24.6434809064869143
  6.3634955499435382 19.5787934843201477 24.6449858944212323
  5.4554394811230491 21.9230226454305424 24.4958510726057952
  7.0868948083070471 22.5586633987447378 24.4903239459455229
  7.4914612163800953 21.5510243472040095 26.7662833790350021
  5.8346886202846093 20.9169411319391187 26.7597471533383029
  6.5854769835528950 23.6502506780564126 26.5412138723832527
